p edge 64 512
e 1 35
e 1 21
e 1 53
e 1 42
e 1 48
e 1 49
e 1 26
e 1 5
e 1 23
e 1 47
e 1 11
e 1 7
e 2 44
e 2 19
e 2 48
e 2 8
e 2 41
e 2 64
e 2 38
e 2 24
e 2 50
e 2 53
e 2 7
e 2 58
e 2 17
e 2 23
e 2 47
e 2 15
e 3 8
e 3 52
e 3 62
e 3 4
e 3 59
e 3 55
e 3 44
e 3 39
e 3 64
e 3 61
e 3 12
e 3 25
e 3 53
e 3 46
e 3 45
e 3 26
e 3 6
e 4 43
e 4 48
e 4 64
e 4 12
e 4 41
e 4 26
e 4 27
e 4 35
e 4 32
e 4 39
e 4 13
e 4 36
e 4 59
e 4 17
e 5 28
e 5 29
e 5 21
e 5 15
e 5 18
e 5 59
e 5 54
e 5 42
e 5 63
e 5 45
e 5 32
e 5 31
e 5 46
e 5 38
e 5 12
e 5 33
e 6 11
e 6 17
e 6 62
e 6 41
e 6 50
e 6 54
e 6 21
e 6 64
e 6 27
e 6 39
e 6 53
e 6 49
e 6 57
e 7 39
e 7 25
e 7 11
e 7 19
e 7 13
e 7 34
e 7 16
e 7 45
e 7 36
e 7 10
e 7 46
e 8 47
e 8 28
e 8 50
e 8 31
e 8 53
e 8 44
e 8 12
e 8 26
e 8 63
e 8 17
e 8 22
e 8 19
e 8 15
e 8 40
e 8 9
e 8 46
e 8 56
e 9 21
e 9 24
e 9 14
e 9 54
e 9 63
e 9 25
e 9 41
e 9 56
e 9 26
e 9 36
e 9 22
e 9 20
e 9 43
e 9 48
e 9 42
e 9 34
e 9 40
e 9 58
e 9 35
e 9 38
e 10 27
e 10 18
e 10 28
e 10 20
e 10 47
e 10 48
e 10 19
e 10 32
e 10 53
e 10 40
e 10 37
e 10 34
e 10 51
e 10 41
e 11 29
e 11 42
e 11 56
e 11 17
e 11 15
e 11 47
e 11 30
e 11 58
e 11 48
e 11 54
e 11 53
e 12 50
e 12 26
e 12 29
e 12 45
e 12 37
e 12 62
e 12 48
e 12 15
e 12 30
e 13 41
e 13 16
e 13 48
e 13 53
e 13 62
e 13 38
e 13 44
e 13 25
e 13 35
e 13 45
e 13 34
e 13 32
e 13 60
e 13 26
e 14 29
e 14 36
e 14 60
e 14 61
e 14 45
e 14 40
e 14 44
e 14 20
e 14 18
e 14 33
e 14 38
e 14 53
e 14 26
e 15 37
e 15 33
e 15 16
e 15 38
e 15 26
e 15 42
e 15 40
e 15 52
e 15 64
e 15 45
e 15 60
e 15 43
e 15 41
e 16 63
e 16 54
e 16 52
e 16 19
e 16 50
e 16 25
e 16 42
e 16 33
e 16 39
e 16 28
e 16 37
e 16 62
e 16 17
e 16 22
e 16 43
e 16 20
e 17 55
e 17 51
e 17 24
e 17 42
e 17 61
e 17 25
e 17 34
e 17 59
e 17 48
e 17 31
e 17 30
e 17 37
e 17 63
e 18 59
e 18 22
e 18 55
e 18 24
e 18 33
e 18 41
e 18 47
e 18 46
e 18 60
e 18 20
e 19 64
e 19 28
e 19 48
e 19 57
e 19 30
e 19 29
e 19 50
e 19 59
e 19 58
e 20 28
e 20 44
e 20 50
e 20 39
e 20 47
e 20 26
e 20 38
e 20 22
e 20 34
e 20 32
e 20 54
e 21 34
e 21 35
e 21 44
e 21 52
e 21 26
e 21 39
e 21 41
e 21 54
e 22 25
e 22 58
e 22 60
e 22 30
e 22 23
e 22 62
e 22 33
e 22 64
e 22 24
e 23 47
e 23 60
e 23 24
e 23 57
e 23 50
e 23 41
e 23 34
e 23 35
e 24 38
e 24 31
e 24 44
e 24 30
e 24 32
e 24 28
e 24 27
e 24 36
e 24 26
e 25 42
e 25 49
e 25 64
e 25 52
e 25 51
e 25 57
e 25 61
e 25 59
e 25 47
e 25 46
e 25 62
e 25 50
e 25 30
e 25 41
e 25 58
e 25 44
e 25 29
e 26 47
e 26 29
e 26 39
e 26 56
e 26 38
e 26 50
e 26 60
e 26 54
e 26 34
e 26 43
e 26 35
e 26 62
e 26 41
e 27 28
e 27 64
e 27 59
e 27 54
e 27 29
e 27 46
e 28 32
e 28 45
e 28 49
e 28 44
e 28 43
e 28 64
e 28 54
e 29 50
e 29 62
e 29 46
e 29 57
e 29 37
e 29 63
e 29 33
e 29 31
e 30 49
e 30 35
e 30 44
e 30 54
e 30 55
e 31 43
e 31 36
e 31 53
e 31 63
e 31 38
e 31 58
e 31 64
e 31 50
e 31 45
e 31 57
e 32 45
e 32 59
e 32 50
e 32 52
e 32 51
e 32 55
e 32 49
e 32 37
e 32 56
e 32 38
e 32 44
e 32 35
e 32 46
e 32 39
e 33 40
e 33 54
e 33 64
e 33 57
e 33 48
e 33 37
e 33 35
e 34 42
e 34 63
e 34 58
e 34 55
e 34 49
e 34 37
e 34 48
e 34 56
e 35 45
e 35 44
e 35 53
e 35 64
e 35 51
e 35 37
e 35 36
e 35 55
e 35 39
e 35 43
e 35 40
e 36 61
e 36 62
e 36 46
e 36 51
e 36 38
e 36 58
e 36 49
e 36 56
e 36 63
e 36 44
e 37 46
e 37 58
e 37 51
e 37 59
e 37 41
e 38 53
e 38 43
e 38 50
e 38 60
e 38 45
e 38 46
e 38 48
e 39 61
e 39 59
e 39 45
e 39 58
e 39 52
e 39 62
e 39 57
e 40 55
e 40 58
e 40 59
e 41 62
e 41 46
e 41 43
e 41 64
e 41 50
e 41 44
e 42 45
e 42 54
e 42 47
e 42 52
e 42 60
e 42 50
e 42 63
e 43 46
e 43 63
e 43 52
e 43 58
e 43 61
e 44 56
e 44 45
e 44 54
e 44 46
e 44 58
e 44 62
e 44 48
e 44 53
e 44 61
e 44 63
e 45 47
e 45 59
e 46 58
e 47 49
e 47 58
e 47 56
e 47 59
e 47 51
e 47 53
e 48 61
e 48 64
e 49 62
e 49 54
e 49 55
e 49 64
e 49 61
e 49 53
e 49 57
e 50 63
e 50 60
e 51 62
e 51 52
e 52 58
e 52 54
e 52 59
e 53 56
e 53 54
e 53 62
e 54 57
e 54 60
e 54 58
e 54 56
e 54 55
e 55 63
e 56 63
e 56 64
e 56 60
e 57 59
e 58 60
e 59 63
e 60 64
e 62 64
e 62 63
